; benchmark generated from python API
(set-info :status unknown)
(declare-fun S_1 () Real)
(declare-fun S_2 () Real)
(declare-fun S_3 () Real)
(declare-fun S_4 () Real)
(declare-fun S_5 () Real)
(declare-fun L_4 () Real)
(declare-fun A_4 () Real)
(declare-fun A_3 () Real)
(declare-fun B () Real)
(declare-fun L_3 () Real)
(declare-fun A_1 () Real)
(declare-fun L_1 () Real)
(declare-fun A_0 () Real)
(declare-fun L_0 () Real)
(declare-fun S_0 () Real)
(declare-fun L_2 () Real)
(declare-fun A_2 () Real)
(declare-fun A_5 () Real)
(assert
 (let (($x4501 (<= (+ (* (- 1.0) S_4) (* (- 1.0) L_3) (* (- 1.0) B) A_3) 0.0)))
 (let (($x3848 (<= (+ (* (- 1.0) S_2) (* (- 1.0) L_1) (* (- 1.0) B) A_1) 0.0)))
 (let (($x2613 (<= (+ (* (- 1.0) S_5) (* (- 1.0) L_4) (* (- 1.0) B) A_4) 0.0)))
 (let (($x1791 (<= (+ (* (- 1.0) S_3) (* (- 1.0) L_2) (* (- 1.0) B) A_2) 0.0)))
 (let (($x1805 (<= (+ A_0 (* (- 1.0) S_1) (* (- 1.0) L_1) (* (- 1.0) B)) 0.0)))
 (let (($x1847 (>= B 0.0)))
 (let ((?x1844 (* (- 2.0) A_1)))
 (let ((?x1785 (* 2.0 B)))
 (let ((?x1843 (* 2.0 L_1)))
 (let ((?x3864 (* (- 2.0) L_0)))
 (let ((?x3863 (* 2.0 A_0)))
 (let ((?x1099 (* (- 1.0) A_2)))
 (let (($x5421 (= B 0.0)))
 (let (($x1810 (<= (+ (* (- 1.0) A_0) S_0 L_1 B) 0.0)))
 (let ((?x977 (* (- 1.0) L_0)))
 (let ((?x986 (* (- 1.0) L_1)))
 (let (($x827 (= ?x986 ?x977)))
 (let (($x231523 (or $x827 $x1810 $x5421 (<= (+ ?x1099 L_2 S_4 ?x3863 ?x3864 ?x1843 ?x1785 ?x1844) 0.0))))
 (let ((?x2173 (* (- 1.0) S_4)))
 (let ((?x995 (* (- 1.0) L_2)))
 (let ((?x1051 (* (- 1.0) A_4)))
 (let (($x34909 (<= (+ S_5 ?x1051 L_4 A_2 ?x995 ?x2173) 0.0)))
 (let ((?x1353 (* (- 1.0) A_0)))
 (let ((?x18547 (* (- (/ 1.0 2.0)) S_4)))
 (let (($x10698 (<= (+ (* 3.0 A_2) (* (- 3.0) L_2) (* (- 2.0) S_4) L_0 ?x1353) 0.0)))
 (let (($x2602 (<= (+ (* (- 1.0) L_3) A_3 ?x2173) 0.0)))
 (let (($x82113 (or $x2602 (not $x10698) (<= (+ (* (- (/ 3.0 2.0)) L_1) (* (/ 3.0 2.0) A_1) ?x18547 L_0 ?x1353) 0.0) $x34909)))
 (let (($x21807 (<= (+ (* (- (/ 2.0 3.0)) A_0) (* (/ 2.0 3.0) L_0) (* (- (/ 1.0 3.0)) S_4) S_1) 0.0)))
 (let ((?x15338 (* (- (/ 1.0 2.0)) S_5)))
 (let ((?x45048 (* (- (/ 1.0 2.0)) L_2)))
 (let ((?x45126 (* (/ 1.0 2.0) A_2)))
 (let (($x38832 (<= (+ (* (- 1.0) S_5) (* (- 1.0) L_3) A_3 ?x1353 L_0 S_1) 0.0)))
 (let (($x15347 (<= (+ (* (- (/ 1.0 4.0)) S_5) (* (- (/ 3.0 4.0)) A_0) (* (/ 3.0 4.0) L_0) S_1) 0.0)))
 (let (($x6977 (<= (+ (* (- 1.0) S_5) A_4 (* (- 1.0) L_4)) 0.0)))
 (let ((?x2242 (* (- 3.0) A_1)))
 (let ((?x2241 (* 3.0 L_1)))
 (let ((?x1794 (* 3.0 B)))
 (let ((?x1686 (* (- 3.0) L_0)))
 (let ((?x1690 (* 3.0 A_0)))
 (let (($x98011 (or $x827 $x1810 $x5421 (<= (+ ?x1099 L_2 S_5 ?x1690 ?x1686 ?x1794 ?x2241 ?x2242) 0.0))))
 (let ((?x3449 (* (- 4.0) A_1)))
 (let ((?x2214 (* 4.0 B)))
 (let ((?x2247 (* 4.0 L_1)))
 (let ((?x3856 (* (- 5.0) A_1)))
 (let ((?x1654 (* 5.0 B)))
 (let ((?x3855 (* 5.0 L_1)))
 (let ((?x3854 (* (- 4.0) L_0)))
 (let ((?x3853 (* 4.0 A_0)))
 (let ((?x1821 (* 2.0 A_3)))
 (let ((?x1830 (* (- 2.0) L_3)))
 (let ((?x12835 (* (- 2.0) S_5)))
 (let (($x237462 (or $x6977 (<= (+ ?x15338 (* (- (/ 1.0 2.0)) A_0) (* (/ 1.0 2.0) L_0) S_2) 0.0) (<= (+ ?x12835 ?x1830 ?x1821 ?x1353 L_0 S_2) 0.0))))
 (let ((?x1349 (* (- 1.0) A_1)))
 (let ((?x1095 (* (- 1.0) A_3)))
 (let (($x226575 (or $x827 $x1810 (<= (+ L_3 ?x1095 S_4 A_0 ?x977 L_1 B ?x1349) 0.0) $x5421)))
 (let ((?x3419 (* (- 2.0) S_3)))
 (let ((?x1818 (* 2.0 A_1)))
 (let ((?x1838 (* (- 2.0) L_1)))
 (let (($x20321 (<= (+ (* (/ 1.0 2.0) A_0) (* (/ 1.0 2.0) S_3) (* (- (/ 1.0 2.0)) L_0) L_1 ?x1349) 0.0)))
 (let (($x2955 (<= (+ A_2 ?x995 (* (- 1.0) S_3)) 0.0)))
 (let (($x23015 (<= (+ S_5 ?x1051 L_4 (* (- (/ 1.0 2.0)) L_1) (* (/ 1.0 2.0) A_1) ?x18547) 0.0)))
 (let (($x81329 (or $x2602 (not (<= (+ A_2 ?x995 ?x2173 ?x986 A_1 L_0 ?x1353) 0.0)) $x23015 $x34909)))
 (let ((?x21731 (* (- (/ 1.0 3.0)) L_0)))
 (let ((?x21771 (* (/ 1.0 3.0) A_0)))
 (let ((?x21733 (* (- (/ 1.0 3.0)) S_4)))
 (let ((?x1789 (* (- 1.0) S_3)))
 (let ((?x22402 (* (- (/ 3.0 5.0)) L_0)))
 (let ((?x22403 (* (/ 3.0 5.0) A_0)))
 (let ((?x77056 (* (/ 2.0 5.0) S_5)))
 (let (($x20312 (not $x20321)))
 (let ((?x14710 (* (- (/ 1.0 2.0)) L_0)))
 (let ((?x20165 (* (- (/ 1.0 2.0)) S_3)))
 (let ((?x15330 (* (/ 1.0 2.0) A_0)))
 (let (($x82066 (or $x2955 (<= (+ L_3 ?x1095 S_4 ?x986 A_1 ?x1789) 0.0) (<= (+ L_3 ?x1095 S_4 ?x15330 ?x20165 ?x14710) 0.0))))
 (let (($x237706 (or $x2602 (<= (+ (* (/ 1.0 2.0) L_1) (* (- (/ 1.0 2.0)) A_1) ?x18547 S_2) 0.0))))
 (let (($x237744 (or $x827 $x1810 $x5421 (<= (+ ?x1099 L_2 S_3 A_0 ?x977 L_1 B ?x1349) 0.0))))
 (let (($x32180 (<= (+ (* (- 1.0) S_5) (* (- 1.0) L_3) A_3 L_1 ?x1349 S_2) 0.0)))
 (let (($x28053 (<= (+ (* (/ 2.0 3.0) L_1) (* (- (/ 2.0 3.0)) A_1) (* (- (/ 1.0 3.0)) S_5) S_2) 0.0)))
 (let (($x58683 (<= (+ (* (- (/ 2.0 3.0)) L_1) (* (/ 2.0 3.0) A_1) (* (/ 1.0 3.0) S_4) ?x1789) 0.0)))
 (let (($x55760 (<= (+ (* (- (/ 5.0 4.0)) L_1) (* (/ 5.0 4.0) A_1) (* (- (/ 1.0 4.0)) S_5) L_0 ?x1353) 0.0)))
 (let (($x53043 (<= (+ (* (- 3.0) L_1) (* 3.0 A_1) S_5 (* (- 4.0) S_3)) 0.0)))
 (let (($x43745 (<= (+ (* 2.0 A_2) (* (- 2.0) L_2) S_5 (* (- 3.0) S_4)) 0.0)))
 (let (($x21732 (<= (+ S_5 (* (/ 2.0 3.0) A_0) (* (- (/ 2.0 3.0)) L_0) (* (- (/ 5.0 3.0)) S_4)) 0.0)))
 (let (($x79650 (or $x2602 $x21732 $x43745 (<= (+ ?x986 A_1 S_5 (* (- 2.0) S_4)) 0.0))))
 (let (($x9070 (<= (+ L_4 (* (- 1.0) L_3)) 0.0)))
 (let (($x237088 (or $x5421 (<= (+ ?x1099 L_2 (* 2.0 S_3) B L_4 ?x1051) 0.0) $x9070)))
 (let ((?x2680 (* (- 3.0) A_4)))
 (let ((?x2674 (* 4.0 A_3)))
 (let ((?x1026 (* (- 1.0) B)))
 (let ((?x2673 (* (- 4.0) L_3)))
 (let ((?x2675 (* 3.0 L_4)))
 (let (($x5546 (<= (+ (* 2.0 A_2) (* (- 2.0) L_2) ?x1353 L_0 B L_4 ?x1051) 0.0)))
 (let ((?x1855 (* 3.0 L_0)))
 (let ((?x1854 (* (- 3.0) A_0)))
 (let (($x3403 (<= (+ ?x1854 ?x1855 (* 4.0 S_1) L_4 B ?x1051) 0.0)))
 (let (($x2640 (<= (+ (* (- 1.0) L_3) A_3 ?x1353 L_0 S_1 L_4 B ?x1051) 0.0)))
 (let (($x5459 (not $x5546)))
 (let ((?x1806 (* 2.0 S_1)))
 (let ((?x4442 (* 2.0 L_0)))
 (let ((?x4484 (* (- 2.0) A_0)))
 (let (($x5457 (<= (+ A_2 ?x995 ?x4484 ?x4442 ?x1806 B L_4 ?x1051) 0.0)))
 (let (($x237320 (or (<= (+ ?x1353 L_0 (* 4.0 S_3) ?x2675 ?x1794 ?x2680) 0.0) $x5421 $x9070)))
 (let (($x19083 (<= (+ L_4 ?x995) 0.0)))
 (let (($x19084 (<= (+ L_3 ?x995) 0.0)))
 (let (($x18545 (not $x19084)))
 (let (($x3446 (<= (+ ?x1353 L_0 L_4 (* (- 2.0) L_2) ?x1026 (* 2.0 A_2) ?x1051) 0.0)))
 (let ((?x2636 (* (- 2.0) A_4)))
 (let ((?x1856 (* 2.0 L_4)))
 (let (($x2662 (<= (+ ?x1830 ?x1821 ?x1353 L_0 ?x1856 ?x995 B A_2 ?x2636) 0.0)))
 (let (($x2234 (<= (+ ?x986 A_1 (* (- 1.0) S_2)) 0.0)))
 (let (($x19845 (<= (+ A_2 ?x995 (* (- 1.0) S_5) ?x4484 ?x4442 ?x1838 (* (- 2.0) B) ?x1818) 0.0)))
 (let ((?x15345 (* (/ 3.0 4.0) L_0)))
 (let ((?x15344 (* (- (/ 3.0 4.0)) A_0)))
 (let ((?x15343 (* (- (/ 1.0 4.0)) S_5)))
 (let ((?x1004 (* (- 1.0) L_3)))
 (let ((?x1775 (* (- 1.0) S_5)))
 (let (($x239590 (or (<= (+ ?x1775 ?x1004 A_3 ?x1353 L_0 ?x986 ?x1026 A_1) 0.0) $x6977 (<= (+ ?x15343 ?x15344 ?x15345 ?x986 ?x1026 A_1) 0.0) $x19845)))
 (let (($x4453 (<= (+ A_0 ?x977 (* (- 3.0) S_3) ?x1830 (* (- 2.0) B) ?x1821) 0.0)))
 (let (($x45370 (<= (+ (* 3.0 S_5) ?x2680 ?x2675 A_0 ?x977 B L_3 ?x1095) 0.0)))
 (let (($x13070 (<= (+ (* (- 3.0) L_1) (* 3.0 A_1) L_3 ?x4442 B ?x4484 ?x1095) 0.0)))
 (let (($x9103 (not $x9070)))
 (let ((?x1849 (* (- 2.0) A_3)))
 (let ((?x1848 (* 2.0 L_3)))
 (let ((?x1779 (* (- 3.0) L_2)))
 (let ((?x1781 (* 3.0 A_2)))
 (let (($x5975 (<= (+ ?x1781 ?x1779 ?x1353 L_0 ?x1785 ?x1848 ?x1849) 0.0)))
 (let (($x15351 (<= (+ ?x986 L_3) 0.0)))
 (let (($x15049 (not $x15351)))
 (let ((?x1780 (* (- 3.0) B)))
 (let (($x3448 (<= (+ ?x1854 ?x1855 L_4 (* (- 4.0) L_1) ?x1780 (* 4.0 A_1) ?x1051) 0.0)))
 (let (($x2664 (<= (+ ?x1004 A_3 ?x1353 L_0 L_4 ?x986 A_1 ?x1051) 0.0)))
 (let ((?x21801 (* (- (/ 2.0 3.0)) S_4)))
 (let ((?x21780 (* (/ 1.0 3.0) L_0)))
 (let ((?x21744 (* (- (/ 1.0 3.0)) A_0)))
 (let (($x21833 (<= (+ ?x21744 ?x21780 ?x21801 ?x995 ?x1026 A_2) 0.0)))
 (let (($x72671 (or $x2955 (<= (+ A_0 ?x977 ?x3419 (* (- 1.0) L_4) ?x1026 A_4) 0.0) $x20312)))
 (let (($x21415 (<= (+ ?x1848 ?x1849 (* 2.0 S_4) A_0 ?x977 L_2 B ?x1099) 0.0)))
 (let (($x15349 (<= (+ ?x986 L_2) 0.0)))
 (let (($x2625 (<= (+ S_4 L_4 B ?x1051) 0.0)))
 (let (($x2292 (<= (+ ?x1838 ?x1818 B L_0 L_2 ?x1353 ?x1099) 0.0)))
 (let ((?x1372 (* (- 5.0) A_2)))
 (let ((?x1742 (* 5.0 L_2)))
 (let ((?x1650 (* 2.0 S_5)))
 (let (($x231905 (or $x5421 $x9070 (<= (+ ?x1843 ?x1844 (* 3.0 S_2) L_4 B ?x1051) 0.0) (<= (+ ?x1004 A_3 L_1 ?x1349 S_2 L_4 B ?x1051) 0.0))))
 (let (($x3878 (<= (+ ?x1353 L_0 ?x1838 L_2 (* (- 2.0) B) ?x1818 ?x1099) 0.0)))
 (let (($x230865 (or $x2664 $x3878 $x5421 (<= (+ A_2 ?x995 ?x4484 ?x4442 ?x1026 ?x1838 L_4 ?x1818 ?x1051) 0.0) $x15049 $x19083)))
 (let ((?x2676 (* (- 4.0) A_4)))
 (let ((?x2669 (* 4.0 L_4)))
 (let ((?x4634 (* 3.0 S_5)))
 (let ((?x2670 (* (- 5.0) A_4)))
 (let ((?x23888 (* 5.0 L_4)))
 (let ((?x26051 (* 4.0 S_5)))
 (let (($x226518 (or (<= (+ S_5 ?x1004 A_3 ?x1785 ?x1856 ?x2636) 0.0) $x5421 (<= (+ A_2 ?x995 ?x1650 ?x1794 ?x2675 ?x2680) 0.0) $x9070 (<= (+ ?x26051 A_0 ?x977 ?x23888 ?x1654 ?x2670) 0.0) (<= (+ ?x986 A_1 ?x4634 ?x2669 ?x2214 ?x2676) 0.0))))
 (let (($x19759 (<= (+ S_5 ?x1051 L_4 A_2 ?x995 B L_3 ?x1095) 0.0)))
 (let (($x13072 (<= (+ ?x986 A_1 ?x1004 (* 2.0 L_2) ?x1026 (* (- 2.0) A_2) A_3) 0.0)))
 (let (($x234952 (or $x5421 $x9103 (not $x13070) $x19083 $x19759 (<= (+ ?x1650 ?x2636 ?x1856 ?x986 A_1 L_3 B ?x1095) 0.0))))
 (let ((?x2731 (* (- 3.0) A_3)))
 (let ((?x2732 (* 3.0 L_3)))
 (let ((?x1996 (* 2.0 S_4)))
 (let ((?x2736 (* (- 4.0) A_3)))
 (let ((?x2738 (* 4.0 L_3)))
 (let ((?x4476 (* 3.0 S_4)))
 (let (($x111196 (or (<= (+ A_0 ?x977 ?x4476 ?x2738 ?x2214 ?x2736) 0.0) $x5421 (<= (+ A_2 ?x995 S_4 ?x1785 ?x1848 ?x1849) 0.0) $x9103 (<= (+ ?x986 A_1 ?x1996 ?x2732 ?x1794 ?x2731) 0.0) $x19083)))
 (let ((?x2163 (* (- 4.0) A_2)))
 (let ((?x2225 (* 4.0 L_2)))
 (let ((?x2213 (* 3.0 A_1)))
 (let ((?x2227 (* (- 3.0) L_1)))
 (let (($x2194 (<= (+ ?x2227 ?x2213 S_5 ?x2214 ?x2225 ?x2163) 0.0)))
 (let (($x226314 (or $x5421 $x15349 (<= (+ ?x1650 ?x2636 ?x1856 A_0 ?x977 B L_2 ?x1099) 0.0) (<= (+ S_5 ?x1051 L_4 ?x986 A_1 L_2 B ?x1099) 0.0))))
 (let (($x2232 (<= (+ ?x986 A_1 S_3 ?x1785 (* 2.0 L_2) (* (- 2.0) A_2)) 0.0)))
 (let ((?x1795 (* (- 3.0) A_2)))
 (let ((?x1793 (* 3.0 L_2)))
 (let ((?x1792 (* 2.0 S_3)))
 (let (($x234957 (or (not (<= (+ A_0 ?x977 ?x1793 ?x1830 B ?x1795 ?x1821) 0.0)) (<= (+ A_0 ?x977 ?x1792 ?x1793 ?x1794 ?x1795) 0.0) $x2232 $x15349)))
 (let ((?x1786 (* (- 2.0) A_2)))
 (let ((?x1784 (* 2.0 L_2)))
 (let (($x30180 (<= (+ S_5 L_3 ?x1095 ?x1838 ?x1818 ?x1784 ?x1785 ?x1786) 0.0)))
 (let (($x232118 (or $x5421 $x15349 (<= (+ S_5 L_3 ?x1095 A_0 ?x977 L_2 B ?x1099) 0.0) $x30180)))
 (let (($x1846 (<= (+ A_0 ?x977 ?x1843 ?x995 ?x1026 ?x1844 A_2) 0.0)))
 (let (($x230378 (or (<= (+ ?x1843 ?x1844 ?x1775 ?x1780 ?x1779 ?x1781) 0.0) $x6977 (<= (+ ?x1775 ?x1004 A_3 L_1 ?x1349 ?x995 ?x1026 A_2) 0.0))))
 (let (($x231417 (or (<= (+ ?x4484 ?x4442 ?x2227 L_3 (* (- 2.0) B) ?x2213 ?x1095) 0.0) $x5421 $x5975 $x9103 $x19083)))
 (let (($x15310 (<= (+ (* (- (/ 3.0 4.0)) S_5) (* (- (/ 1.0 4.0)) A_0) (* (/ 1.0 4.0) L_0) S_3) 0.0)))
 (let (($x232216 (or $x6977 (<= (+ (* (- (/ 1.0 2.0)) A_2) (* (/ 1.0 2.0) L_2) ?x15338 S_3) 0.0))))
 (let (($x64838 (or $x2234 (<= (+ ?x1099 L_2 S_4 ?x3863 (* (- 2.0) S_2) ?x3864) 0.0))))
 (let (($x226457 (or $x5421 $x9070 (<= (+ L_1 ?x1349 (* 3.0 S_3) ?x1856 ?x1785 ?x2636) 0.0))))
 (let (($x27792 (<= (+ (* (/ 1.0 3.0) L_1) (* (- (/ 1.0 3.0)) A_1) (* (- (/ 2.0 3.0)) S_5) S_3) 0.0)))
 (let ((?x1761 (* 2.0 A_2)))
 (let ((?x1760 (* (- 2.0) B)))
 (let ((?x1774 (* (- 2.0) L_2)))
 (let (($x103601 (or (<= (+ ?x1775 ?x1353 L_0 ?x1774 ?x1760 ?x1761) 0.0) $x6977 (<= (+ ?x12835 ?x1830 ?x1821 ?x1353 L_0 ?x995 ?x1026 A_2) 0.0))))
 (let (($x3780 (<= (+ L_3 ?x1095 A_0 ?x977 (* (- 1.0) L_4) L_1 ?x1349 A_4) 0.0)))
 (let (($x2666 (<= (+ L_3 ?x1095 A_0 ?x977 (* (- 1.0) L_4) L_1 ?x1026 ?x1349 A_4) 0.0)))
 (let (($x2585 (not $x2666)))
 (let (($x1764 (not $x1846)))
 (let (($x58556 (or $x2234 (<= (+ S_5 L_3 ?x1095 ?x3863 (* (- 2.0) S_2) ?x3864) 0.0))))
 (let (($x230686 (or $x1846 $x5421 $x15349 (<= (+ L_3 ?x1095 S_4 ?x986 A_1 L_2 B ?x1099) 0.0))))
 (let (($x226319 (or $x2955 (<= (+ (* (- (/ 1.0 2.0)) A_0) ?x20165 (* (/ 1.0 2.0) L_0) S_1) 0.0))))
 (let (($x1825 (<= (+ A_0 ?x977 (* (- 1.0) L_4) ?x1784 B ?x1786 A_4) 0.0)))
 (let (($x5949 (<= (+ ?x1761 ?x1774 S_5 ?x1794 ?x2732 ?x2731) 0.0)))
 (let (($x4544 (<= (+ A_0 ?x977 ?x1793 ?x1830 ?x1760 ?x1795 ?x1821) 0.0)))
 (let (($x226396 (or (<= (+ ?x1830 ?x1821 ?x1353 L_0 S_2 ?x1856 ?x1785 ?x2636) 0.0) (<= (+ ?x1353 L_0 (* 2.0 S_2) L_4 B ?x1051) 0.0) $x5421 $x9070)))
 (let (($x24436 (<= (+ ?x986 A_1 S_5 ?x1848 ?x1785 ?x1849) 0.0)))
 (let (($x4531 (<= (+ ?x3863 ?x3864 ?x2241 ?x1004 ?x1026 ?x2242 A_3) 0.0)))
 (let (($x103584 (or $x827 $x1810 $x5421 (<= (+ S_5 L_3 ?x1095 ?x3863 ?x3864 ?x1843 ?x1785 ?x1844) 0.0))))
 (let (($x55483 (or $x2234 (<= (+ ?x1099 L_2 S_5 ?x1690 (* (- 3.0) S_2) ?x1686) 0.0))))
 (let (($x57644 (or $x2234 (<= (+ ?x1099 L_2 S_3 A_0 (* (- 1.0) S_2) ?x977) 0.0))))
 (let ((?x2576 (* 2.0 A_4)))
 (let ((?x1817 (* (- 2.0) L_4)))
 (let ((?x10680 (* (- 3.0) S_4)))
 (let (($x5509 (<= (+ A_2 ?x995 (* (- 2.0) S_4) ?x1026 (* (- 1.0) L_4) A_4) 0.0)))
 (let ((?x2737 (* 3.0 A_4)))
 (let ((?x2739 (* (- 3.0) L_4)))
 (let ((?x3371 (* (- 4.0) S_4)))
 (let (($x56050 (or $x2602 (<= (+ A_0 ?x977 ?x3371 ?x2739 ?x1780 ?x2737) 0.0) $x5509 (<= (+ ?x986 A_1 ?x10680 ?x1817 ?x1760 ?x2576) 0.0))))
 (let (($x21809 (<= (+ (* (- (/ 2.0 3.0)) A_0) (* (/ 2.0 3.0) L_0) ?x21733 ?x986 ?x1026 A_1) 0.0)))
 (let (($x239563 (or $x2602 (<= (+ A_2 ?x995 ?x2173 ?x1353 L_0 ?x986 ?x1026 A_1) 0.0) $x21809)))
 (let (($x16721 (<= (+ ?x1838 ?x1818 (* (- 3.0) S_3) (* (- 1.0) L_4) ?x1026 A_4) 0.0)))
 (let (($x92867 (or $x2955 (<= (+ ?x1690 ?x1686 (* (- 1.0) L_4) ?x2247 ?x1026 ?x3449 A_4) 0.0) $x16721)))
 (let (($x1802 (<= (+ S_2 L_2 B ?x1099) 0.0)))
 (let (($x110659 (or $x1802 (<= (+ ?x1353 L_0 (* 3.0 S_2) ?x1848 ?x1785 ?x1849) 0.0) $x15351)))
 (let (($x2272 (<= (+ ?x1838 ?x1818 ?x1785 ?x1793 (* (- 1.0) L_4) ?x1795 A_4) 0.0)))
 (let (($x38202 (or $x2234 (<= (+ L_3 ?x1095 S_4 A_0 (* (- 1.0) S_2) ?x977) 0.0))))
 (let (($x227655 (or $x1802 (<= (+ L_1 ?x1349 (* 2.0 S_2) L_3 B ?x1095) 0.0) $x15351)))
 (let (($x104381 (or $x827 $x1810 $x5421 (<= (+ ?x1099 L_2 A_0 ?x977 ?x1004 L_1 ?x1349 A_3) 0.0))))
 (let (($x5047 (<= (+ ?x4634 ?x3863 ?x3864 ?x1654 (* 5.0 L_3) (* (- 5.0) A_3)) 0.0)))
 (let (($x4459 (not $x4544)))
 (let (($x16142 (<= (+ ?x1843 ?x1844 L_4 ?x1779 ?x1760 ?x1781 ?x1051) 0.0)))
 (let (($x237713 (or $x5421 $x16142 $x18545 $x19083 (<= (+ ?x1004 A_3 A_2 ?x995 L_1 ?x1349 L_4 ?x1051) 0.0))))
 (let (($x22373 (<= (+ (* (/ 1.0 2.0) L_1) (* (- (/ 1.0 2.0)) A_1) ?x18547 ?x1026 ?x995 A_2) 0.0)))
 (let (($x23247 (<= (+ L_3 ?x1095 ?x986 A_1 (* (- 1.0) L_4) L_2 ?x1099 A_4) 0.0)))
 (let (($x103626 (or (<= (+ A_0 ?x977 ?x2739 ?x2738 B ?x2736 ?x2737) 0.0) $x5421 (<= (+ A_2 ?x995 B ?x1848 (* (- 1.0) L_4) ?x1849 A_4) 0.0) (<= (+ ?x986 A_1 ?x2732 ?x1817 B ?x2731 ?x2576) 0.0) $x19084)))
 (let (($x2279 (<= (+ ?x986 A_1 B ?x1784 ?x1004 ?x1786 A_3) 0.0)))
 (let (($x1835 (<= (+ A_0 ?x977 ?x1793 ?x1830 B ?x1795 ?x1821) 0.0)))
 (let (($x27083 (<= (+ L_3 ?x1095 ?x986 A_1 ?x1789 (* (- 1.0) L_4) ?x1026 A_4) 0.0)))
 (let (($x28307 (or (<= (+ ?x1848 ?x1849 A_0 ?x1789 ?x977 ?x1817 ?x1760 ?x2576) 0.0) $x2955 $x27083)))
 (let (($x227186 (or $x827 $x1810 (<= (+ ?x1690 ?x1686 (* (- 1.0) L_4) ?x2247 ?x1794 ?x3449 A_4) 0.0) $x5421)))
 (let (($x22849 (<= (+ ?x1099 L_2 ?x3863 ?x3864 (* (- 1.0) L_4) ?x1843 B ?x1844 A_4) 0.0)))
 (let (($x9119 (<= (+ A_4 (* (- 1.0) L_4) A_2 ?x995 ?x1848 ?x1785 ?x1849) 0.0)))
 (let (($x88528 (or $x827 $x1810 (<= (+ ?x1004 A_3 ?x3863 ?x3864 ?x2241 ?x1785 ?x2242) 0.0) $x5421)))
 (let (($x21574 (or $x2234 (<= (+ S_5 ?x1051 L_4 A_0 ?x977 (* (- 1.0) S_2)) 0.0))))
 (let (($x237925 (or $x2292 $x5421 $x15349 (<= (+ ?x1848 ?x1849 A_0 ?x977 ?x1817 L_2 ?x1026 ?x1099 ?x2576) 0.0))))
 (let (($x88216 (or $x827 $x1810 $x5421 (<= (+ S_5 ?x1051 L_4 A_0 ?x977 B L_1 ?x1349) 0.0))))
 (let (($x237984 (or $x827 $x1810 (<= (+ A_0 ?x977 ?x1843 ?x995 B ?x1844 A_2) 0.0) $x5421)))
 (let (($x16422 (<= (+ L_1 ?x1349 ?x1856 (* (- 3.0) L_3) ?x1026 (* 3.0 A_3) ?x2636) 0.0)))
 (let (($x227088 (or $x3878 $x5421 (<= (+ A_2 ?x995 ?x1353 L_0 ?x986 L_3 A_1 ?x1095) 0.0) $x15351)))
 (let (($x871 (= ?x1004 ?x995)))
 (let (($x4455 (<= (+ (* (- 3.0) S_5) ?x1353 L_0 ?x2673 (* (- 4.0) B) ?x2674) 0.0)))
 (let (($x12830 (<= (+ L_1 ?x1349 ?x12835 (* (- 3.0) L_3) ?x1780 (* 3.0 A_3)) 0.0)))
 (let (($x3836 (<= (+ S_1 L_1 B ?x1349) 0.0)))
 (let (($x237474 (or $x871 $x3836 (<= (+ ?x4484 ?x4442 (* 3.0 S_1) L_3 B ?x1095) 0.0) (<= (+ A_2 ?x995 ?x1353 L_0 S_1 B L_3 ?x1095) 0.0))))
 (let (($x9773 (or (<= (+ A_0 ?x977 (* (- 2.0) S_2) ?x995 ?x1026 A_2) 0.0) $x2234)))
 (let (($x763 (= ?x995 ?x986)))
 (let (($x3422 (<= (+ ?x1690 ?x1686 (* (- 4.0) S_2) (* (- 1.0) L_4) ?x1026 A_4) 0.0)))
 (let (($x5906 (<= (+ ?x1099 L_2 A_0 (* (- 1.0) S_2) ?x977 ?x1026 ?x1004 A_3) 0.0)))
 (let ((?x1013 (* (- 1.0) L_4)))
 (let ((?x1798 (* (- 2.0) S_2)))
 (let (($x3620 (or $x2234 (<= (+ ?x3863 ?x3864 (* (- 3.0) S_2) ?x1004 ?x1026 A_3) 0.0))))
 (let (($x2635 (<= (+ L_3 ?x1095 A_0 ?x977 (* (- 1.0) S_2) ?x1013 ?x1026 A_4) 0.0)))
 (let (($x108037 (or $x763 (not $x1825) $x1764 (<= (+ A_0 ?x977 S_4 ?x1784 ?x1785 ?x1786) 0.0))))
 (and (<= ?x995 ?x986) (<= ?x1013 ?x1004) (<= ?x986 ?x977) $x108037 (<= ?x1004 ?x995) (or $x763 $x1802) (or $x2234 $x2635) (or (= ?x1013 ?x1004) $x2625) $x3620 (or $x871 (<= (+ S_3 L_3 B ?x1095) 0.0)) (or $x2234 (<= (+ ?x1099 L_2 ?x3863 ?x1798 ?x3864 ?x1026 ?x1013 A_4) 0.0)) (or $x2234 $x5906) (or $x2234 $x3422) (or $x827 $x1810 $x3836) (or $x763 (<= (+ ?x1353 L_0 ?x1806 L_2 B ?x1099) 0.0) $x3836) $x9773 $x237474 (or (<= (+ ?x1099 L_2 ?x1775 ?x1760 ?x1830 ?x1821) 0.0) $x6977) (or $x6977 $x12830) (or $x4455 $x6977) (or $x2955 $x4531 (<= (+ ?x986 A_1 ?x3419 ?x1004 ?x1026 A_3) 0.0)) (or $x871 (<= (+ ?x1353 L_0 ?x1779 ?x1848 ?x1026 ?x1781 ?x1849) 0.0) $x5421) (or (<= (+ ?x1353 L_0 ?x1838 L_2 ?x1026 ?x1818 ?x1099) 0.0) $x5421 $x15349) (or $x827 $x1810 $x3780 $x5421) $x227088 (or $x5421 $x9070 $x16422) (or $x5421 $x9070 (not $x9119)) $x237984 (or $x827 $x1810 (<= (+ A_0 ?x977 S_2 ?x1843 ?x1785 ?x1844) 0.0) $x5421) $x88216 $x237925 $x21574 $x88528 (or (<= (+ ?x1099 L_2 ?x1026 ?x1830 L_4 ?x1821 ?x1051) 0.0) $x9070 $x9119) (or $x827 $x1810 $x5421 $x22849) $x227186 (or $x1846 $x2279 $x5421 $x15349) (or $x5421 (<= (+ L_1 ?x1349 L_3 ?x1774 ?x1026 ?x1761 ?x1095) 0.0) $x19084) (or $x2662 $x5421 $x16142 $x18545 $x19083) $x28307 (or $x1835 $x2292 $x5421 $x15349) (or $x1846 $x2272 $x5421 $x15349) (or $x1846 $x5421 $x15349 $x23247) (or $x2664 $x5421 $x5457 $x5459 $x9070) (or $x2279 $x4531 $x5421 $x15349) $x103626 (or $x2666 $x5421 $x15349 $x23247) (or $x3448 $x4459 $x5421 $x9070 $x19084) (or $x1846 $x2232 $x5421 $x15349) (or $x2602 $x22373) $x237713 (or $x2234 (<= (+ ?x3863 ?x3864 S_3 (* (- 3.0) S_2)) 0.0)) (or $x4459 $x5047 $x5421 $x9103 $x19083 $x24436) $x104381 $x227655 $x38202 (or $x1825 $x2272 $x2585 $x3780 $x15349) $x110659 $x92867 $x239563 (or (not (<= (+ ?x1353 L_0 ?x1779 ?x1848 ?x1780 ?x1781 ?x1849) 0.0)) $x21833) (or $x1846 (<= (+ ?x1838 ?x1818 S_4 ?x1794 ?x1793 ?x1795) 0.0) $x5421 $x15349) (or $x1846 $x2194 $x5421 $x15349) $x56050 $x57644 $x55483 $x103584 (or $x2955 (<= (+ ?x1353 ?x1789 L_0 ?x1838 ?x1760 ?x1818) 0.0)) (or $x4531 $x5421 $x5949 $x9103 $x19083 $x24436) $x226396 (or $x4544 $x5421 $x5949 $x13072 $x15351) (or $x1825 $x2292 $x5421 $x15349) $x226319 $x230686 $x58556 (or $x1764 $x2585 $x3780 $x15349 $x21415) $x103601 (or $x6977 $x27792) $x226457 $x64838 $x232216 (or $x6977 $x15310) (or $x2234 (<= (+ ?x1690 ?x1686 S_4 (* (- 4.0) S_2)) 0.0)) $x231417 $x230378 (or $x1846 $x5421 $x15349 $x30180) $x232118 $x234957 $x226314 (or (not $x2292) $x2194 $x5421 $x15349) $x111196 $x234952 (or $x5421 (not $x5975) $x13072 $x15351 $x19759) $x226518 $x230865 (or $x2602 (<= (+ ?x21744 ?x21780 ?x21801 S_2) 0.0)) $x231905 (or (<= (+ ?x1650 ?x1690 ?x1686 ?x1742 ?x1654 ?x1372) 0.0) $x2292 $x5421 $x15349) (or $x2292 $x2625 $x15349 $x21415) $x72671 (or $x2664 $x3403 $x5421 $x5546 $x15049 $x19083) (or $x2602 $x21833) (or $x2664 $x3448 $x5421 $x5546 $x15049 $x19083) (or $x5421 $x5975 $x9103 $x13070 $x19083 $x45370) (or $x2955 $x4453 $x20312) $x239590 (or $x2234 (<= (+ S_5 ?x3853 ?x3854 (* (- 5.0) S_2)) 0.0)) (or $x2662 $x3446 $x5421 $x18545 $x19083) $x237320 (or $x2640 $x5421 $x5457 $x5459 $x9070) (or $x2640 $x3403 $x5421 $x5546 $x9070) (or (<= (+ ?x1353 L_0 ?x2675 ?x2673 ?x1026 ?x2674 ?x2680) 0.0) $x5421 $x9070) $x237088 (or $x2955 $x20321 (<= (+ S_5 ?x1051 L_4 ?x986 A_1 ?x1789) 0.0)) $x79650 (or $x2955 (<= (+ S_5 ?x1051 L_4 ?x15330 ?x20165 ?x14710) 0.0) $x20312) (or $x2955 $x53043 (not $x55760)) (or $x2955 $x20321 $x58683) (or $x2955 $x20312 (<= (+ S_5 L_3 ?x1095 A_0 ?x1789 ?x977) 0.0)) (or $x6977 $x28053 $x32180) $x237744 $x237706 $x82066 (or $x2955 $x20312 (<= (+ ?x77056 ?x22403 ?x22402 ?x1789) 0.0)) (or $x2955 $x20312 (<= (+ A_0 ?x977 S_4 ?x3419) 0.0)) (or $x2602 $x10698 $x23015 (<= (+ S_5 ?x1051 L_4 ?x21733 ?x21771 ?x21731) 0.0)) $x81329 (or $x2955 $x20321 (<= (+ S_5 L_3 ?x1095 ?x1838 ?x1818 ?x3419) 0.0)) $x226575 $x237462 (or $x827 $x1810 $x5421 (<= (+ S_5 ?x3853 ?x3854 ?x3855 ?x1654 ?x3856) 0.0)) (or $x827 $x1810 (<= (+ ?x1690 ?x1686 S_4 ?x2247 ?x2214 ?x3449) 0.0) $x5421) (or $x827 $x1810 (<= (+ ?x3863 ?x3864 S_3 ?x2241 ?x1794 ?x2242) 0.0) $x5421) $x98011 (or $x6977 $x15347 $x38832 (<= (+ ?x45126 ?x45048 ?x15338 ?x1353 L_0 S_1) 0.0)) (or $x2602 $x21807 (<= (+ A_2 ?x995 ?x2173 ?x1353 L_0 S_1) 0.0)) $x82113 $x231523 $x1847 $x1805 $x1791 (<= (+ (* (- 1.0) S_1) S_0) 0.0) (<= (+ L_1 ?x1349 S_1) 0.0) (<= (+ L_3 ?x1095 S_3) 0.0) (<= (+ S_5 (* (- 1.0) A_5) L_4) 0.0) $x2613 (<= (+ ?x1099 L_2 S_2) 0.0) (<= (+ S_0 L_0 ?x1353) 0.0) $x3848 $x4501 (<= (+ ?x1051 L_4 S_4) 0.0) (<= (+ ?x1775 S_4) 0.0) (<= (+ ?x2173 S_3) 0.0) (<= (+ ?x1789 S_2) 0.0) (<= (+ (* (- 1.0) S_2) S_1) 0.0))))))))))))))))))))))))))))))))))))))))))))))))))))))))))))))))))))))))))))))))))))))))))))))))))))))))))))))))))))))))))))))))))))))))))))))))))))))))))))))))))))))))))))))))))))))))))))))))))))))))))))))))))))))))))))))))))))))))))))))))))))))))))))))))))))))
(check-sat)
